webassembly/ejemplos_dzn/folder8_json_62.dzn
TERM = { '.', 's(2)', 'in_1', 'local_0', 's(1)', 's(0)', 's(3)', 'in_0'};
null = '.';
s = 8;
n = 7;
ndeps = 1;
max_registers_sz = 4;
NR = 1;
registers = [|'local_0', 's(3)'|];
dependencies = [|'call[function_index(0)]_1', 'i32.store_7'|];
GET_ENUM = { GET1, GET2, GET3, GET4, GET5};
SET_ENUM = { SET1, SET2, SET3, SET4, SET5};
TEE_ENUM = { TEE1, TEE2, TEE3, TEE4, TEE5};
N = 5;
OP = { 'call[function_index(0)]_1', 'i32.const_0', 'i32.const_1', 'i32.add_0', 'i32.store_7' };
in_ops = [2, 0, 0, 2, 2 ];
out_ops = [1, 1, 1, 1, 0 ];
in1 = ['in_0', '.', '.', 's(3)', 's(2)' ];
in2 = ['in_1', '.', '.', 's(0)', 's(1)' ];
in3 = ['.', '.', '.', '.', '.' ];
out1 = ['s(0)', 's(2)', 's(3)', 's(1)', '.' ];
out2 = ['.', '.', '.', '.', '.' ];
out3 = ['.', '.', '.', '.', '.' ];
comm = [false, false, false, true, false ];
gas = [1, 1, 1, 1, 1 ];
sz = [1, 1, 1, 1, 1 ];
stor = [true, false, false, false, true ];
lb = [ 1, 1, 1, 1, 1 ];
ub = [ 8, 8, 8, 8, 8 ];
startstack = [ 'in_0', 'in_1', null, null, null, null, null ];
endstack = [ null, null, null, null, null, null, null ];
